BEGIN IONS
PEPMASS=319.11801
CHARGE=1+
MSLEVEL=2
SOURCE_INSTRUMENT=LC-ESI-qTOF
FILENAME=p1-A02_GA2_01_17875.mzXML
SEQ=*..*
NOTES=Dorrestein:VVP/LMS:N/A:N/A:Prestwick Phytochem Lib:N/A
IONMODE=Positive
EXACTMASS=318.110352
ORGANISM=phytochem_lib
NAME="NCGC00160272-01!5-(3-Furan-2-yl-acryloyl)-2,2-dimethyl-4,6-dioxo-cyclohexanecarboxylic acid methyl ester" [M+H]
SMILES=COC(=O)C1C(=O)C(C(=O)\C=C\C2=CC=CO2)C(=O)CC1(C)C
INCHI=N/A
INCHIAUX=N/A
LIBRARYQUALITY=1
SPECTRUMID=CCMSLIB00000078679
ACTIVATION=CID
INSTRUMENT=qtof
TITLE=Scan Number: 2483
SCANS=2483
95.051018 196.000000
95.472488 164.000000
95.910118 96.000000
96.897331 148.000000
97.063919 288.000000
97.802567 128.000000
99.659431 120.000000
99.882072 188.000000
100.403870 48.000000
100.551498 196.000000
101.025749 232.000000
101.141083 52.000000
101.559830 60.000000
102.853554 136.000000
103.492348 176.000000
103.707069 228.000000
103.808434 184.000000
105.036789 124.000000
105.852203 160.000000
106.192375 80.000000
107.049576 484.000000
107.430588 124.000000
108.050323 180.000000
109.028290 336.000000
109.063866 172.000000
109.091324 116.000000
109.569946 272.000000
109.638702 176.000000
111.646263 76.000000
112.446785 212.000000
114.141449 136.000000
114.175468 156.000000
114.496811 140.000000
114.558571 32.000000
114.831390 104.000000
115.207047 220.000000
115.908775 96.000000
115.960205 180.000000
119.049461 148.000000
119.349312 144.000000
119.828125 180.000000
120.408325 136.000000
120.614227 164.000000
120.685829 52.000000
120.788612 136.000000
120.978981 216.000000
121.028694 17976.000000
121.097214 84.000000
121.218575 120.000000
121.274681 84.000000
121.329475 52.000000
121.393059 88.000000
121.531242 152.000000
121.616821 68.000000
122.010002 84.000000
122.031273 664.000000
122.104546 72.000000
122.522751 64.000000
122.643936 180.000000
122.721092 72.000000
122.747551 68.000000
122.769600 144.000000
122.837967 104.000000
122.915184 120.000000
122.932838 44.000000
123.043495 184.000000
123.478477 68.000000
124.242622 44.000000
125.063416 224.000000
127.006348 172.000000
132.434845 80.000000
134.033691 144.000000
135.003159 80.000000
135.044617 320.000000
136.610413 184.000000
137.063553 584.000000
138.393356 192.000000
139.077850 188.000000
140.110107 212.000000
140.834259 144.000000
141.057632 380.000000
141.150925 60.000000
143.036880 188.000000
145.026535 168.000000
145.175171 160.000000
145.921890 108.000000
146.564484 212.000000
149.063950 196.000000
151.039124 1144.000000
152.038193 188.000000
152.996750 132.000000
154.099106 124.000000
154.984833 156.000000
157.018158 140.000000
161.024658 136.000000
161.673233 68.000000
162.433289 140.000000
163.039337 520.000000
163.266312 144.000000
164.040298 132.000000
165.054047 804.000000
166.542679 48.000000
169.004486 176.000000
169.047852 232.000000
171.075439 168.000000
171.656418 208.000000
174.733887 148.000000
175.039200 168.000000
178.563995 188.000000
182.325424 160.000000
183.066254 584.000000
186.153214 164.000000
189.015259 176.000000
191.761322 136.000000
192.257721 168.000000
192.812790 64.000000
193.049973 2800.000000
193.135513 104.000000
193.208176 112.000000
194.048538 592.000000
195.050232 212.000000
196.441605 164.000000
198.130005 68.000000
203.031509 120.000000
204.030930 216.000000
205.046890 184.000000
206.017151 76.000000
206.054291 132.000000
206.288620 84.000000
207.035339 172.000000
207.754745 108.000000
211.059296 1280.000000
211.888657 52.000000
212.068314 180.000000
213.685684 64.000000
219.007416 164.000000
219.069275 156.000000
219.405212 64.000000
225.075638 172.000000
225.107697 104.000000
225.768082 76.000000
226.082184 44.000000
229.063446 92.000000
230.717056 160.000000
231.027512 508.000000
231.082977 176.000000
231.104156 156.000000
232.026138 148.000000
243.153503 128.000000
244.692093 104.000000
244.953674 72.000000
245.077103 324.000000
245.417999 52.000000
252.774155 96.000000
253.119171 176.000000
259.110077 148.000000
273.025787 176.000000
287.091736 320.000000
289.157043 128.000000
301.102417 132.000000
315.109863 96.000000
316.729980 104.000000
335.561462 96.000000
345.062805 124.000000
346.991608 120.000000
387.510773 80.000000
394.448517 20.000000
396.205444 56.000000
426.621185 52.000000
488.290375 72.000000
620.360229 100.000000
781.637451 84.000000
876.989502 184.000000
944.296326 168.000000
964.524170 56.000000
987.966736 176.000000
1017.611877 176.000000
1019.301270 252.000000
1075.617310 184.000000
1095.650024 132.000000
1135.840820 204.000000
1149.072388 108.000000
1151.569946 212.000000
1152.677734 256.000000
1161.810791 124.000000
1167.985352 108.000000
1176.134155 188.000000
1183.496460 176.000000
1183.934692 84.000000
1189.240967 204.000000
1199.123779 196.000000
1202.441040 128.000000
1210.141235 204.000000
1212.052734 116.000000
1215.325317 100.000000
1219.853149 32.000000
1225.232178 204.000000
1238.692993 156.000000
1240.157349 68.000000
1273.913086 152.000000
1276.997803 160.000000
1289.602661 180.000000
1291.082520 164.000000
1291.611694 164.000000
1294.273804 148.000000
1294.474365 132.000000
1297.125000 128.000000
1299.104126 260.000000
1322.724365 220.000000
1349.772583 208.000000
1355.313354 80.000000
1367.311646 100.000000
1373.603638 220.000000
1374.282227 132.000000
1379.658569 56.000000
1392.372925 140.000000
1399.109253 172.000000
1402.975464 240.000000
1404.600952 148.000000
1405.056030 136.000000
1420.135620 224.000000
1429.142212 280.000000
1436.064819 156.000000
1441.991333 164.000000
1458.604736 176.000000
1465.895508 152.000000
1468.022217 168.000000
1471.615845 120.000000
1486.663940 164.000000
1500.847656 200.000000
END IONS

BEGIN IONS
PEPMASS=402.33701
CHARGE=1+
MSLEVEL=2
SOURCE_INSTRUMENT=LC-ESI-qTOF
FILENAME=p1-A02_GA2_01_17875.mzXML
SEQ=*..*
NOTES=Dorrestein:VVP/LMS:N/A:N/A:Prestwick Phytochem Lib:N/A
IONMODE=Positive
EXACTMASS=401.329376
ORGANISM=phytochem_lib
NAME="NCGC00160316-01!6,7-didehydro-26,28didemethyl-16,28-secosolanidan-3,16-diol" [M+H]
SMILES=C[C@@H](C1[C@@H](O)CC2C3C=CC4C[C@@H](O)CC[C@]4(C)[C@H]3CC[C@]12C)[C@@H]5CCCCN5
INCHI=N/A
INCHIAUX=N/A
LIBRARYQUALITY=1
SPECTRUMID=CCMSLIB00000078680
ACTIVATION=CID
INSTRUMENT=qtof
TITLE=Scan Number: 2572
SCANS=2572
100.415749 180.000000
110.103806 200.000000
111.079109 180.000000
112.010262 120.000000
112.659943 160.000000
113.298790 164.000000
132.414108 140.000000
134.607910 140.000000
135.989929 176.000000
137.867233 164.000000
141.217010 172.000000
146.357224 112.000000
148.427887 176.000000
150.745132 136.000000
152.015976 136.000000
155.143311 192.000000
156.878403 168.000000
161.761673 148.000000
175.144379 124.000000
191.482910 92.000000
196.600464 128.000000
199.139603 172.000000
201.861847 172.000000
203.051178 220.000000
207.227081 60.000000
214.276489 164.000000
219.201660 272.000000
233.214493 56.000000
237.332504 144.000000
238.416031 76.000000
242.830643 160.000000
243.646973 184.000000
247.940292 112.000000
248.021774 224.000000
251.481461 204.000000
260.232300 204.000000
270.836517 224.000000
282.906433 168.000000
283.067139 136.000000
283.261383 6228.000000
283.618622 64.000000
283.656738 64.000000
283.757324 60.000000
283.924957 52.000000
284.032288 100.000000
284.116150 244.000000
284.216797 56.000000
284.266144 2188.000000
284.324158 144.000000
284.361084 116.000000
284.385986 48.000000
284.676636 44.000000
284.858002 32.000000
285.136871 68.000000
285.265259 216.000000
285.657990 156.000000
286.034302 104.000000
286.125732 140.000000
286.260406 80.000000
286.331116 88.000000
287.740540 80.000000
288.139038 64.000000
288.280945 76.000000
288.480347 104.000000
289.359863 52.000000
290.949799 44.000000
291.846710 76.000000
296.297852 204.000000
296.869415 80.000000
297.075195 120.000000
311.056427 36.000000
324.139709 128.000000
341.092407 164.000000
359.238770 180.000000
402.365112 120.000000
403.355774 120.000000
405.332703 180.000000
748.369080 92.000000
757.291687 52.000000
860.873413 36.000000
1316.202393 20.000000
1340.530640 36.000000
END IONS